
;this file is automatically generated: Thu Jan 02 16:54:47 GMT 2020

;declarations generated

(declare-fun class39_Class39BoolAttr1 ( Int) Bool)
(declare-fun class39_Class39BoolAttr0 ( Int) Bool)
(declare-fun oclExcludes ( Int Int) Bool)
(declare-fun Cardinality ( Int) Int)
(declare-fun type_a5e69afc_5977_4644_b0cb_7994ce69d850_Class39 ( Int) Bool)
(declare-fun oclSelect ( Int Bool) Int)
(declare-fun class39_Class39IntAttr3 ( Int) Int)
(declare-fun class39_Class39IntAttr4 ( Int) Int)
(declare-fun Enum0 ( Int) Int)
(declare-fun Enum1 ( Int) Int)
(declare-fun Enum2 ( Int) Int)
(declare-fun container_ ( Int) Int)
(declare-fun obj_06324ea6_5bfe_4d87_9654_f3927c622c5a ( Int) Int)
(declare-fun oclIncludes ( Int Int) Bool)
(declare-fun ObjAt ( Int Int) Int)

;formula(s) generated
(assert (! (or (or (forall ((c9_2 Int)(c9_1 Int)) (=> (and ( type_a5e69afc_5977_4644_b0cb_7994ce69d850_Class39 c9_1 )  ( type_a5e69afc_5977_4644_b0cb_7994ce69d850_Class39 c9_2 ) ) (= ( class39_Class39IntAttr4 ( obj_06324ea6_5bfe_4d87_9654_f3927c622c5a c9_1 )  )  ( class39_Class39IntAttr3 ( obj_06324ea6_5bfe_4d87_9654_f3927c622c5a c9_2 )  ) ))) (forall ((v Int)) (=> ( type_a5e69afc_5977_4644_b0cb_7994ce69d850_Class39 v )  ( class39_Class39BoolAttr0 ( obj_06324ea6_5bfe_4d87_9654_f3927c622c5a v )  ) ))) (or (forall ((v Int)) (=> ( type_a5e69afc_5977_4644_b0cb_7994ce69d850_Class39 v )  ( class39_Class39BoolAttr1 ( obj_06324ea6_5bfe_4d87_9654_f3927c622c5a v )  ) )) (forall ((v Int)) (=> ( type_a5e69afc_5977_4644_b0cb_7994ce69d850_Class39 v )  (<= ( class39_Class39IntAttr4 ( obj_06324ea6_5bfe_4d87_9654_f3927c622c5a v )  )  14))))):named l0))
(assert (exists ((o Int)) ( type_a5e69afc_5977_4644_b0cb_7994ce69d850_Class39 ( obj_06324ea6_5bfe_4d87_9654_f3927c622c5a o )  ) ))

 ;end of formula 